MIN
OBJ:          +1.0000 th00000000_00000000        +100.0000 th00000000_00000001 

SUBJECT TO
SF00000001:          -1.0000 th00000000_00000000        -200.0000 th00000000_00000001          +1.0000 th00000001_00000000        +200.0000 th00000001_00000001 =        -100.0000
SF00000002:          -1.0000 th00000000_00000000         -50.0000 th00000000_00000001          +1.0000 th00000002_00000000         +50.0000 th00000002_00000001 =          -0.0000

NN00000001:          +1.0000 th00000001_00000000        +200.0000 th00000001_00000001 >= 0
NN00000002:          +1.0000 th00000002_00000000         +50.0000 th00000002_00000001 >= 0

BOUNDS
th00000000_00000000 free
th00000000_00000001 free
th00000001_00000000 free
th00000001_00000001 free
th00000002_00000000 free
th00000002_00000001 free

END
